language ESSENCE' 1.0

letting jobs = 102
letting horizon = 811
letting resourcesRenew = 2
letting resourcesNonrenew = 2
letting resourceLimits = [18, 18, 197, 147]
letting successors = [[2, 3, 4, 5, 6, 7, 8, 9, 11, 14], [28, 27, 25, 23, 22, 21, 20, 18, 17, 12], [28, 27, 25, 12, 10], [27, 25, 23, 21, 20, 16, 12], [28, 27, 25, 20, 18, 17, 13], [34, 30, 27, 24, 23, 20, 18, 15], [30, 28, 27, 25, 24, 22, 20, 17], [34, 30, 29, 27, 25, 24, 21, 18], [28, 27, 24, 23, 20, 16], [30, 20, 13], [34, 29, 24, 23, 20, 19], [34, 30, 24, 15], [34, 29, 24, 23, 19], [34, 29, 25, 23, 20], [41, 29, 19], [41, 34, 33, 31, 29], [34, 29, 26], [37, 19], [32, 31, 26], [41, 37, 26], [37, 32, 26], [41, 37, 26], [41, 38, 32, 31], [43, 41, 40, 38, 37, 36, 33], [38, 32, 31], [43, 40, 39, 38, 36, 33], [43, 41, 40, 39, 36, 33], [43, 38, 37, 36, 32], [43, 38, 37, 32], [43, 41, 38, 32], [47, 45, 43, 42, 39, 36], [46, 44, 42, 40, 35], [48, 47, 46, 44, 42, 35], [52, 48, 47, 38, 36], [70, 64, 62, 58, 53, 52, 50, 49, 45], [70, 62, 58, 49, 46, 44], [70, 64, 62, 58, 55, 53, 51, 47], [70, 68, 66, 64, 59, 58, 57, 54, 53, 50], [70, 65, 62, 58, 57, 52, 51, 50], [64, 59, 54, 50, 48, 47], [67, 53, 52, 51, 48], [73, 71, 70, 68, 66, 65, 64, 62, 59, 57, 54], [73, 71, 68, 66, 65, 60, 57, 55, 54], [73, 68, 66, 64, 54, 53], [73, 67, 60, 57, 55, 51], [73, 65, 57, 56, 50], [80, 73, 71, 68, 67, 66, 61, 57, 56], [73, 70, 62, 61, 60, 56, 55], [73, 67, 60, 55, 54], [71, 67, 61, 60, 55], [75, 68, 66, 54], [80, 75, 73, 60, 56], [80, 79, 75, 71, 65, 63, 60], [80, 69, 61, 56], [89, 81, 80, 79, 75, 74, 69, 63], [89, 81, 79, 74, 63], [101, 89, 81, 75, 63], [100, 88, 84, 81, 79, 78, 76, 75, 73], [89, 88, 82, 81, 78, 77, 76, 72, 69], [88, 82, 81, 78, 72, 69], [100, 89, 88, 86, 84, 83, 82, 79, 76], [101, 100, 88, 87, 84, 82, 81, 78, 77], [88, 82, 78, 77, 76, 72], [82, 81, 78, 77, 76, 72], [89, 88, 81, 78, 69], [89, 88, 87, 81, 77, 72], [88, 79, 76, 72], [88, 76, 69], [101, 100, 97, 96, 92, 87, 86, 85, 84, 83], [101, 98, 97, 96, 92, 88, 87, 86, 84, 83], [100, 99, 98, 97, 96, 94, 92, 87, 83], [100, 97, 96, 93, 92, 86, 84, 83], [98, 97, 96, 93, 89, 86, 83], [97, 93, 92, 86, 84, 83], [97, 94, 85, 82], [95, 94, 92, 91, 90, 87, 85], [96, 95, 94, 92, 91, 90, 85], [97, 96, 92, 86, 83], [101, 99, 97, 93, 92, 91, 90], [101, 96, 94, 93, 92, 91, 90], [97, 96, 92, 91, 90], [96, 95, 91, 90], [95, 91, 90], [99, 95, 90], [98, 93], [94], [93], [94], [92], [102], [102], [102], [102], [102], [102], [102], [102], [102], [102], [102], [102], []]
letting durations = [[0], [1, 5, 9], [5, 5, 10], [9, 9, 10], [1, 3, 10], [5, 6, 7], [3, 3, 6], [4, 6, 7], [6, 7, 9], [1, 3, 6], [7, 9, 10], [3, 4, 9], [2, 7, 9], [4, 8, 9], [1, 1, 5], [2, 5, 9], [4, 7, 9], [3, 10, 10], [2, 5, 7], [2, 4, 9], [3, 7, 8], [4, 8, 8], [8, 8, 9], [1, 8, 10], [3, 5, 10], [4, 5, 6], [5, 8, 9], [5, 8, 8], [4, 4, 4], [5, 7, 10], [2, 3, 5], [1, 5, 8], [2, 6, 10], [1, 3, 9], [1, 3, 9], [2, 8, 9], [7, 7, 8], [1, 5, 7], [2, 7, 10], [6, 6, 9], [4, 6, 9], [2, 4, 5], [4, 6, 10], [1, 3, 5], [2, 3, 4], [3, 8, 8], [2, 8, 10], [2, 7, 10], [4, 5, 5], [1, 5, 6], [1, 4, 10], [6, 7, 10], [2, 3, 6], [4, 6, 9], [7, 8, 9], [6, 6, 7], [1, 7, 9], [9, 10, 10], [2, 5, 6], [3, 4, 7], [3, 8, 10], [6, 8, 10], [1, 3, 8], [2, 3, 8], [6, 6, 9], [2, 3, 8], [2, 6, 7], [2, 3, 6], [2, 6, 7], [5, 9, 10], [2, 3, 10], [2, 9, 10], [6, 7, 7], [1, 2, 6], [3, 5, 8], [2, 3, 4], [2, 7, 10], [1, 4, 5], [2, 4, 4], [5, 6, 8], [4, 10, 10], [1, 5, 9], [2, 7, 9], [4, 7, 8], [1, 3, 8], [6, 8, 10], [2, 3, 6], [7, 10, 10], [1, 9, 9], [2, 8, 10], [1, 3, 8], [4, 6, 9], [1, 4, 5], [2, 3, 6], [1, 3, 4], [2, 8, 10], [3, 6, 9], [2, 6, 9], [9, 9, 10], [5, 6, 6], [4, 5, 10], [0]]
letting resourceUsage = [[[0, 0, 0, 0]], [[0, 4, 0, 4], [1, 0, 0, 3], [1, 0, 2, 0]], [[0, 3, 0, 4], [1, 0, 3, 0], [1, 0, 2, 0]], [[4, 0, 0, 6], [0, 3, 2, 0], [0, 1, 1, 0]], [[0, 4, 0, 4], [0, 2, 7, 0], [4, 0, 0, 2]], [[0, 3, 10, 0], [0, 2, 5, 0], [3, 0, 0, 7]], [[0, 3, 10, 0], [3, 0, 6, 0], [0, 2, 2, 0]], [[0, 5, 9, 0], [1, 0, 0, 3], [1, 0, 0, 1]], [[3, 0, 8, 0], [2, 0, 8, 0], [0, 2, 0, 4]], [[0, 5, 0, 8], [0, 3, 0, 6], [0, 2, 0, 2]], [[0, 1, 6, 0], [2, 0, 4, 0], [0, 1, 0, 3]], [[0, 3, 0, 7], [3, 0, 0, 7], [2, 0, 1, 0]], [[0, 2, 8, 0], [0, 2, 0, 4], [0, 1, 6, 0]], [[4, 0, 0, 9], [3, 0, 3, 0], [0, 3, 0, 5]], [[0, 4, 0, 4], [4, 0, 0, 3], [4, 0, 0, 2]], [[0, 3, 3, 0], [0, 3, 0, 8], [2, 0, 1, 0]], [[5, 0, 6, 0], [0, 3, 4, 0], [5, 0, 2, 0]], [[0, 4, 3, 0], [0, 2, 2, 0], [2, 0, 1, 0]], [[4, 0, 8, 0], [0, 3, 0, 2], [0, 3, 0, 1]], [[1, 0, 0, 9], [0, 3, 6, 0], [0, 3, 0, 5]], [[3, 0, 8, 0], [2, 0, 3, 0], [0, 4, 3, 0]], [[0, 4, 0, 7], [0, 3, 8, 0], [1, 0, 7, 0]], [[5, 0, 0, 2], [0, 4, 7, 0], [0, 4, 3, 0]], [[0, 3, 0, 9], [3, 0, 7, 0], [0, 2, 0, 3]], [[0, 3, 0, 9], [2, 0, 0, 6], [0, 2, 0, 3]], [[0, 3, 8, 0], [0, 3, 5, 0], [0, 3, 4, 0]], [[0, 2, 0, 9], [2, 0, 4, 0], [1, 0, 4, 0]], [[3, 0, 0, 3], [0, 4, 8, 0], [1, 0, 0, 1]], [[0, 3, 5, 0], [3, 0, 0, 1], [2, 0, 1, 0]], [[4, 0, 7, 0], [0, 4, 0, 8], [0, 4, 3, 0]], [[0, 2, 0, 6], [0, 1, 9, 0], [0, 1, 0, 1]], [[2, 0, 8, 0], [0, 2, 6, 0], [2, 0, 5, 0]], [[3, 0, 6, 0], [0, 4, 0, 4], [0, 4, 2, 0]], [[1, 0, 8, 0], [0, 3, 8, 0], [0, 3, 7, 0]], [[2, 0, 0, 4], [0, 1, 0, 4], [0, 1, 4, 0]], [[3, 0, 0, 9], [0, 2, 0, 8], [1, 0, 0, 6]], [[0, 3, 5, 0], [3, 0, 3, 0], [3, 0, 2, 0]], [[0, 5, 0, 8], [0, 4, 0, 8], [3, 0, 0, 7]], [[1, 0, 9, 0], [0, 2, 9, 0], [1, 0, 8, 0]], [[3, 0, 9, 0], [0, 1, 0, 4], [0, 1, 9, 0]], [[0, 2, 0, 5], [4, 0, 0, 4], [4, 0, 0, 3]], [[0, 4, 6, 0], [2, 0, 5, 0], [2, 0, 4, 0]], [[0, 5, 9, 0], [0, 5, 7, 0], [2, 0, 0, 2]], [[0, 4, 6, 0], [3, 0, 0, 3], [0, 4, 2, 0]], [[0, 2, 10, 0], [0, 1, 7, 0], [1, 0, 0, 2]], [[4, 0, 7, 0], [0, 2, 5, 0], [4, 0, 5, 0]], [[0, 1, 0, 5], [0, 1, 0, 4], [2, 0, 2, 0]], [[0, 3, 7, 0], [3, 0, 6, 0], [0, 2, 3, 0]], [[0, 3, 0, 9], [2, 0, 7, 0], [1, 0, 0, 3]], [[3, 0, 9, 0], [0, 3, 6, 0], [0, 3, 4, 0]], [[0, 2, 6, 0], [0, 1, 5, 0], [0, 1, 0, 7]], [[0, 3, 0, 5], [0, 3, 0, 4], [0, 3, 0, 1]], [[4, 0, 0, 9], [3, 0, 2, 0], [0, 3, 0, 5]], [[4, 0, 0, 2], [0, 2, 7, 0], [1, 0, 0, 1]], [[2, 0, 0, 6], [2, 0, 0, 5], [2, 0, 0, 4]], [[3, 0, 0, 5], [2, 0, 3, 0], [2, 0, 0, 2]], [[3, 0, 0, 4], [0, 2, 0, 2], [2, 0, 0, 2]], [[0, 3, 0, 7], [0, 3, 3, 0], [0, 1, 0, 1]], [[4, 0, 6, 0], [4, 0, 5, 0], [4, 0, 4, 0]], [[0, 4, 0, 8], [3, 0, 0, 8], [0, 4, 0, 7]], [[3, 0, 0, 10], [2, 0, 1, 0], [2, 0, 0, 9]], [[0, 4, 7, 0], [1, 0, 7, 0], [1, 0, 0, 2]], [[0, 4, 0, 6], [4, 0, 0, 6], [4, 0, 2, 0]], [[0, 5, 0, 8], [0, 4, 0, 5], [0, 3, 0, 4]], [[0, 2, 0, 1], [0, 2, 7, 0], [2, 0, 6, 0]], [[0, 3, 7, 0], [0, 3, 0, 3], [0, 3, 0, 1]], [[3, 0, 5, 0], [0, 3, 0, 3], [0, 3, 0, 2]], [[0, 4, 9, 0], [0, 4, 0, 2], [1, 0, 0, 2]], [[0, 4, 10, 0], [0, 4, 9, 0], [0, 4, 8, 0]], [[2, 0, 5, 0], [0, 3, 0, 6], [1, 0, 5, 0]], [[3, 0, 5, 0], [3, 0, 0, 9], [3, 0, 0, 8]], [[0, 3, 0, 9], [2, 0, 0, 7], [1, 0, 0, 6]], [[0, 2, 0, 6], [0, 1, 9, 0], [0, 1, 0, 4]], [[2, 0, 0, 2], [2, 0, 3, 0], [0, 3, 0, 1]], [[0, 3, 5, 0], [3, 0, 5, 0], [3, 0, 4, 0]], [[0, 4, 7, 0], [3, 0, 5, 0], [0, 3, 3, 0]], [[4, 0, 0, 8], [0, 3, 5, 0], [0, 3, 4, 0]], [[0, 1, 0, 10], [4, 0, 4, 0], [0, 1, 0, 4]], [[0, 3, 9, 0], [0, 3, 5, 0], [2, 0, 4, 0]], [[3, 0, 5, 0], [0, 3, 3, 0], [0, 3, 1, 0]], [[0, 1, 7, 0], [2, 0, 0, 3], [1, 0, 5, 0]], [[0, 5, 10, 0], [0, 5, 0, 3], [0, 5, 0, 2]], [[5, 0, 0, 7], [0, 5, 2, 0], [3, 0, 1, 0]], [[5, 0, 10, 0], [2, 0, 0, 2], [0, 1, 10, 0]], [[0, 3, 5, 0], [2, 0, 0, 5], [0, 3, 0, 4]], [[0, 4, 0, 2], [1, 0, 0, 2], [0, 2, 3, 0]], [[4, 0, 10, 0], [4, 0, 5, 0], [4, 0, 3, 0]], [[0, 3, 10, 0], [0, 3, 8, 0], [1, 0, 0, 2]], [[0, 4, 8, 0], [4, 0, 0, 6], [0, 2, 0, 2]], [[0, 4, 0, 7], [0, 4, 0, 6], [0, 3, 3, 0]], [[4, 0, 0, 7], [0, 1, 2, 0], [4, 0, 0, 5]], [[0, 4, 6, 0], [4, 0, 0, 6], [0, 3, 1, 0]], [[1, 0, 10, 0], [1, 0, 7, 0], [1, 0, 6, 0]], [[5, 0, 0, 9], [4, 0, 0, 6], [3, 0, 0, 3]], [[0, 3, 0, 7], [0, 2, 0, 7], [0, 2, 0, 5]], [[0, 4, 0, 6], [0, 3, 0, 4], [5, 0, 3, 0]], [[0, 3, 0, 8], [2, 0, 1, 0], [0, 3, 1, 0]], [[0, 4, 7, 0], [0, 4, 6, 0], [1, 0, 6, 0]], [[5, 0, 3, 0], [5, 0, 0, 5], [0, 3, 0, 4]], [[0, 5, 6, 0], [3, 0, 0, 5], [0, 2, 0, 3]], [[0, 1, 0, 9], [3, 0, 0, 7], [3, 0, 2, 0]], [[0, 0, 0, 0]]]
